DEVICE
27765
27766
27767
27768
1181339426
1062543307
1230005409
1062543309
5498801
5633292
5633298
31209
31211
28002
28015
30815
28021
28022
28032
28015
28015
28015
28015
28015
28015
33111
33112
1091265389
3723855
1179733259
467844010
1094212841
884643994
3762143
3636661
131967999
4254399648
4254399649
4214251266
4258396619
4258396620
